
Gurobi 9.5.0 (linux64) logging started Sat Nov  4 17:04:09 2023

Set parameter LogFile to value "/lustre1/scratch/348/vsc34888/JointResearch/05.Models/06.Benchmarking/D.Representative_days_based_on_RES_and_Demand/RTS24_ByStages_nc80/openStarNet_RTS24_ByStages_nc80.log"
Set parameter Method to value 2
Set parameter MIPFocus to value 1
Set parameter Presolve to value 2
Set parameter RINS to value 100
Set parameter MIPGap to value 0.01
Set parameter Threads to value 36
Set parameter TimeLimit to value 604800
Set parameter IterationLimit to value 760000000
Gurobi Optimizer version 9.5.0 build v9.5.0rc5 (linux64)
Thread count: 36 physical cores, 36 logical processors, using up to 36 threads
Optimize a model with 37340 rows, 21041 columns and 98313 nonzeros
Model fingerprint: 0xb52aa352
Variable types: 21002 continuous, 39 integer (39 binary)
Coefficient statistics:
  Matrix range     [2e-03, 2e+03]
  Objective range  [1e+00, 1e+00]
  Bounds range     [4e-04, 3e+00]
  RHS range        [4e-04, 3e+00]
Presolve removed 19100 rows and 9296 columns
Presolve time: 0.18s
Presolved: 18240 rows, 11745 columns, 63466 nonzeros
Variable types: 11706 continuous, 39 integer (39 binary)
Found heuristic solution: objective 60.1707217
Root relaxation presolved: 18240 rows, 11745 columns, 63466 nonzeros

Root barrier log...

Ordering time: 0.01s

Barrier statistics:
 Dense cols : 39
 AA' NZ     : 1.350e+05
 Factor NZ  : 4.524e+05 (roughly 16 MB of memory)
 Factor Ops : 1.424e+07 (less than 1 second per iteration)
 Threads    : 36

                  Objective                Residual
Iter       Primal          Dual         Primal    Dual     Compl     Time
   0   6.17418508e+05 -6.91935237e+07  4.50e+00 2.67e+02  5.41e+03     0s
   1   6.90989683e+04 -1.86633821e+07  4.30e-01 4.10e-09  6.99e+02     0s
   2   1.66676088e+04 -2.14676426e+06  8.52e-03 2.31e-09  5.93e+01     0s
   3   1.00712313e+04 -1.75506171e+05  6.08e-13 1.84e-10  5.00e+00     0s
   4   1.68739398e+03 -1.73870774e+04  4.69e-13 1.28e-11  5.14e-01     0s
   5   4.82508655e+02 -6.34715616e+03  4.41e-13 4.44e-12  1.84e-01     1s
   6   2.52950019e+02 -1.86504258e+03  3.86e-13 1.36e-12  5.71e-02     1s
   7   1.66354736e+02 -7.54268241e+02  1.84e-13 9.09e-13  2.48e-02     1s
   8   1.09234557e+02 -1.76768945e+02  2.74e-13 9.09e-13  7.71e-03     1s
   9   8.34370630e+01 -3.94349447e+01  1.95e-13 9.09e-13  3.31e-03     1s
  10   5.44527396e+01  1.64861180e+01  2.22e-13 9.09e-13  1.02e-03     1s
  11   4.90346392e+01  3.59022092e+01  3.38e-13 9.09e-13  3.54e-04     1s
  12   4.75713924e+01  3.93992254e+01  5.16e-12 9.09e-13  2.20e-04     1s
  13   4.59985302e+01  4.11923246e+01  2.67e-12 9.09e-13  1.30e-04     1s
  14   4.55305882e+01  4.21526230e+01  8.35e-12 9.09e-13  9.11e-05     1s
  15   4.51918686e+01  4.29707615e+01  7.78e-12 9.09e-13  5.99e-05     1s
  16   4.46993146e+01  4.38836851e+01  5.05e-12 9.09e-13  2.20e-05     1s
  17   4.44946053e+01  4.40608837e+01  6.97e-12 9.09e-13  1.17e-05     1s
  18   4.44089629e+01  4.42968505e+01  1.46e-11 9.09e-13  3.02e-06     1s
  19   4.43666640e+01  4.43349219e+01  8.48e-11 9.09e-13  8.56e-07     1s
  20   4.43434348e+01  4.43423240e+01  2.39e-10 6.82e-13  2.99e-08     1s
  21   4.43428218e+01  4.43428206e+01  6.34e-10 9.09e-13  3.11e-11     1s
  22   4.43428211e+01  4.43428211e+01  1.11e-09 9.09e-13  3.11e-14     1s

Barrier solved model in 22 iterations and 0.72 seconds (0.60 work units)
Optimal objective 4.43428211e+01


Root relaxation: objective 4.434282e+01, 1307 iterations, 0.47 seconds (0.27 work units)

    Nodes    |    Current Node    |     Objective Bounds      |     Work
 Expl Unexpl |  Obj  Depth IntInf | Incumbent    BestBd   Gap | It/Node Time

     0     0   44.34282    0    7   60.17072   44.34282  26.3%     -    0s
H    0     0                      54.7570788   44.34282  19.0%     -    0s
     0     0   45.18761    0    8   54.75708   45.18761  17.5%     -    1s
     0     0   45.19781    0    8   54.75708   45.19781  17.5%     -    1s
     0     0   46.09393    0    7   54.75708   46.09393  15.8%     -    2s
H    0     0                      54.6570700   46.09393  15.7%     -    2s
     0     0   46.18193    0    7   54.65707   46.18193  15.5%     -    2s
     0     0   46.18193    0    7   54.65707   46.18193  15.5%     -    2s
     0     0   46.18193    0    7   54.65707   46.18193  15.5%     -    2s
H    0     0                      53.8120926   46.59832  13.4%     -    2s
     0     0   47.38326    0    8   53.81209   47.38326  11.9%     -    2s
     0     0   47.60461    0    8   53.81209   47.60461  11.5%     -    2s
     0     0   47.60461    0    8   53.81209   47.60461  11.5%     -    3s
     0     0   47.60461    0    8   53.81209   47.60461  11.5%     -    3s
     0     0   47.60461    0    8   53.81209   47.60461  11.5%     -    3s
     0     0   47.70541    0   10   53.81209   47.70541  11.3%     -    3s
     0     0   47.70541    0   10   53.81209   47.70541  11.3%     -    3s
     0     0   47.70541    0   11   53.81209   47.70541  11.3%     -    3s
     0     0   47.70541    0    9   53.81209   47.70541  11.3%     -    3s
     0     0   47.70541    0    9   53.81209   47.70541  11.3%     -    3s
     0     0   47.85360    0   11   53.81209   47.85360  11.1%     -    3s
     0     0   47.85360    0   11   53.81209   47.85360  11.1%     -    3s
     0     0   47.98454    0    9   53.81209   47.98454  10.8%     -    4s
H    0     0                      52.5396298   47.98454  8.67%     -    7s
     0     2   47.98454    0    9   52.53963   47.98454  8.67%     -    8s
   119    25   52.23097    9    3   52.53963   51.02936  2.87%   224   10s

Cutting planes:
  Gomory: 4
  Implied bound: 25
  MIR: 437
  Relax-and-lift: 10

Explored 185 nodes (36968 simplex iterations) in 10.40 seconds (11.63 work units)
Thread count was 36 (of 36 available processors)

Solution count 5: 52.5396 53.8121 54.6571 ... 60.1707

Optimal solution found (tolerance 1.00e-02)
Best objective 5.253962983627e+01, best bound 5.222763884179e+01, gap 0.5938%

Gurobi 9.5.0 (linux64) logging started Sat Nov  4 17:04:24 2023

Set parameter LogFile to value "/lustre1/scratch/348/vsc34888/JointResearch/05.Models/06.Benchmarking/D.Representative_days_based_on_RES_and_Demand/RTS24_ByStages_nc80/openStarNet_RTS24_ByStages_nc80.log"
Set parameter Method to value 2
Set parameter MIPFocus to value 1
Set parameter Presolve to value 2
Set parameter RINS to value 100
Set parameter MIPGap to value 0.01
Set parameter Threads to value 36
Set parameter TimeLimit to value 604800
Set parameter IterationLimit to value 760000000
No parameters matching 'relax_integrality' found
Gurobi Optimizer version 9.5.0 build v9.5.0rc5 (linux64)
Thread count: 36 physical cores, 36 logical processors, using up to 36 threads
Optimize a model with 37340 rows, 21002 columns and 85794 nonzeros
Model fingerprint: 0xbfc04e96
Coefficient statistics:
  Matrix range     [2e-03, 2e+03]
  Objective range  [1e+00, 1e+00]
  Bounds range     [4e-04, 3e+00]
  RHS range        [4e-04, 1e+01]
Presolve removed 30229 rows and 10434 columns
Presolve time: 0.04s
Presolved: 7111 rows, 10728 columns, 25670 nonzeros

Ordering time: 0.00s

Barrier statistics:
 AA' NZ     : 1.692e+04
 Factor NZ  : 7.272e+04 (roughly 6 MB of memory)
 Factor Ops : 1.042e+06 (less than 1 second per iteration)
 Threads    : 36

                  Objective                Residual
Iter       Primal          Dual         Primal    Dual     Compl     Time
   0   6.99909388e+05 -1.99984869e+08  5.04e+00 5.76e+02  2.02e+04     0s
   1   8.43293872e+04 -2.89541502e+07  4.72e-01 1.46e-11  2.09e+03     0s
   2   4.19128190e+04 -3.97615969e+06  1.20e-01 1.52e-11  2.64e+02     0s
   3   2.41656133e+04 -5.41397796e+05  3.20e-03 1.09e-11  3.12e+01     0s
   4   1.24252966e+04 -1.16505643e+05  7.02e-05 1.43e-11  7.06e+00     0s
   5   5.04223834e+03 -3.15542725e+04  1.65e-05 8.07e-12  2.00e+00     0s
   6   1.16678272e+03 -7.16291727e+03  2.51e-06 7.28e-12  4.56e-01     0s
   7   3.46358357e+02 -2.21835338e+03  3.13e-07 3.64e-12  1.40e-01     0s
   8   1.76879431e+02 -5.97954618e+02  6.36e-08 3.64e-12  4.24e-02     0s
   9   9.84534324e+01 -1.88898102e+02  8.42e-09 3.64e-12  1.57e-02     0s
  10   7.10057036e+01  9.76768472e+00  2.10e-09 3.64e-12  3.35e-03     0s
  11   5.92695142e+01  3.22938380e+01  6.11e-10 3.64e-12  1.48e-03     0s
  12   5.57833303e+01  4.59312925e+01  2.78e-10 1.82e-12  5.39e-04     0s
  13   5.39216048e+01  4.99707315e+01  1.14e-10 3.64e-12  2.16e-04     0s
  14   5.30864667e+01  5.16246334e+01  4.34e-11 3.64e-12  8.00e-05     0s
  15   5.27035889e+01  5.22975920e+01  1.25e-11 3.64e-12  2.22e-05     0s
  16   5.25580558e+01  5.25249625e+01  1.29e-11 3.64e-12  1.81e-06     0s
  17   5.25401592e+01  5.25373259e+01  2.27e-09 1.82e-12  1.55e-07     0s
  18   5.25396377e+01  5.25396062e+01  1.84e-09 3.64e-12  1.72e-09     0s
  19   5.25396298e+01  5.25396298e+01  1.35e-09 3.64e-12  1.72e-12     0s
  20   5.25396298e+01  5.25396298e+01  5.01e-09 3.64e-12  1.72e-15     0s

Barrier solved model in 20 iterations and 0.16 seconds (0.11 work units)
Optimal objective 5.25396298e+01

Crossover log...

     950 DPushes remaining with DInf 0.0000000e+00                 0s
       0 DPushes remaining with DInf 0.0000000e+00                 0s

     356 PPushes remaining with PInf 8.8083447e-06                 0s
       0 PPushes remaining with PInf 0.0000000e+00                 0s

  Push phase complete: Pinf 0.0000000e+00, Dinf 2.2778197e-12      0s

Iteration    Objective       Primal Inf.    Dual Inf.      Time
     393    5.2539630e+01   0.000000e+00   0.000000e+00      0s

Use crossover to convert LP symmetric solution to basic solution...
Crossover log...

       0 DPushes remaining with DInf 0.0000000e+00                 0s

     242 PPushes remaining with PInf 0.0000000e+00                 0s
       0 PPushes remaining with PInf 0.0000000e+00                 0s

  Push phase complete: Pinf 0.0000000e+00, Dinf 9.8439222e-13      0s

Iteration    Objective       Primal Inf.    Dual Inf.      Time
     673    5.2539630e+01   0.000000e+00   0.000000e+00      0s

Solved in 673 iterations and 0.23 seconds (0.14 work units)
Optimal objective  5.253962984e+01

Gurobi 9.0.2 (win64) logging started Mon Nov  6 09:36:34 2023

Changed value of parameter LogFile to C:\Users\u0138303\OneDrive - KU Leuven\JointResearch\05. Models\06.Benchmarking\D.Representative_days_based_on_RES_and_Demand\RTS24_ByStages_nc80/openStarNet_RTS24_ByStages_nc80.log
   Prev:   Default: 
Changed value of parameter Method to 2
   Prev: -1  Min: -1  Max: 5  Default: -1
Changed value of parameter MIPFocus to 1
   Prev: 0  Min: 0  Max: 3  Default: 0
Changed value of parameter Presolve to 2
   Prev: -1  Min: -1  Max: 2  Default: -1
Changed value of parameter RINS to 100
   Prev: -1  Min: -1  Max: 2000000000  Default: -1
Parameter Crossover unchanged
   Value: -1  Min: -1  Max: 5  Default: -1
Changed value of parameter MIPGap to 0.01
   Prev: 0.0001  Min: 0.0  Max: inf  Default: 0.0001
Changed value of parameter Threads to 6
   Prev: 0  Min: 0  Max: 1024  Default: 0
Changed value of parameter TimeLimit to 604800.0
   Prev: inf  Min: 0.0  Max: inf  Default: inf
Changed value of parameter IterationLimit to 760000000.0
   Prev: inf  Min: 0.0  Max: inf  Default: inf
Gurobi Optimizer version 9.0.2 build v9.0.2rc0 (win64)
Optimize a model with 37341 rows, 21041 columns and 98314 nonzeros
Model fingerprint: 0x1db6f53d
Variable types: 21002 continuous, 39 integer (39 binary)
Coefficient statistics:
  Matrix range     [2e-03, 3e+03]
  Objective range  [1e+00, 1e+00]
  Bounds range     [4e-04, 3e+00]
  RHS range        [4e-04, 3e+00]
Presolve removed 19101 rows and 9296 columns
Presolve time: 0.21s
Presolved: 18240 rows, 11745 columns, 63466 nonzeros
Variable types: 11706 continuous, 39 integer (39 binary)
Presolved: 18240 rows, 11745 columns, 63466 nonzeros

Root barrier log...

Ordering time: 0.01s

Barrier statistics:
 Dense cols : 39
 AA' NZ     : 1.350e+05
 Factor NZ  : 4.345e+05 (roughly 16 MBytes of memory)
 Factor Ops : 1.300e+07 (less than 1 second per iteration)
 Threads    : 5

                  Objective                Residual
Iter       Primal          Dual         Primal    Dual     Compl     Time
   0   6.47076187e+05 -6.93208665e+07  4.63e+00 2.67e+02  5.51e+03     0s
   1   8.39835232e+04 -1.91193594e+07  4.64e-01 5.04e-09  7.29e+02     0s
   2   2.38747385e+04 -2.20705989e+06  8.69e-03 1.51e-09  6.12e+01     0s
   3   1.26032042e+04 -2.12062462e+05  5.84e-13 1.38e-10  6.06e+00     0s
   4   3.10050714e+03 -2.66897638e+04  6.65e-13 1.26e-11  8.03e-01     0s
   5   5.92508759e+02 -7.85079212e+03  3.07e-13 3.42e-12  2.28e-01     0s
   6   2.66926476e+02 -2.15001641e+03  3.54e-13 9.94e-13  6.52e-02     0s
   7   1.44764459e+02 -7.52462832e+02  2.92e-13 6.20e-13  2.42e-02     0s
   8   1.15406326e+02 -2.07073007e+02  2.32e-13 9.55e-13  8.69e-03     0s
   9   7.46648407e+01 -3.15530820e+01  2.59e-13 5.94e-13  2.86e-03     1s
  10   5.30095647e+01  2.94361076e+01  2.22e-13 1.02e-12  6.36e-04     1s
  11   4.90352607e+01  3.80630776e+01  2.95e-13 1.48e-12  2.96e-04     1s
  12   4.76106511e+01  4.02276056e+01  2.13e-12 8.19e-13  1.99e-04     1s
  13   4.59913387e+01  4.17482032e+01  3.73e-12 8.83e-13  1.14e-04     1s
  14   4.55027683e+01  4.37927091e+01  7.11e-12 1.67e-12  4.61e-05     1s
  15   4.48063734e+01  4.38954087e+01  1.75e-11 2.27e-12  2.46e-05     1s
  16   4.45415473e+01  4.43080450e+01  9.63e-12 1.87e-12  6.30e-06     1s
  17   4.44124811e+01  4.43280443e+01  1.51e-10 7.69e-13  2.28e-06     1s
  18   4.43516974e+01  4.43381463e+01  5.44e-10 7.66e-13  3.65e-07     1s
  19   4.43435708e+01  4.43424808e+01  2.23e-10 9.99e-13  2.94e-08     1s
  20   4.43428256e+01  4.43428194e+01  8.34e-11 1.54e-12  1.66e-10     1s
  21   4.43428215e+01  4.43428211e+01  1.81e-08 1.02e-12  9.79e-12     1s

Barrier solved model in 21 iterations and 0.73 seconds
Optimal objective 4.43428215e+01


Root relaxation: objective 4.434282e+01, 1014 iterations, 0.59 seconds

    Nodes    |    Current Node    |     Objective Bounds      |     Work
 Expl Unexpl |  Obj  Depth IntInf | Incumbent    BestBd   Gap | It/Node Time

     0     0   44.34282    0    7          -   44.34282      -     -    0s
H    0     0                      60.1707217   44.34282  26.3%     -    1s
H    0     0                      54.7570788   44.34282  19.0%     -    1s
     0     0   45.18761    0    8   54.75708   45.18761  17.5%     -    2s
     0     0   45.18761    0    8   54.75708   45.18761  17.5%     -    2s
     0     0   46.18193    0    8   54.75708   46.18193  15.7%     -    3s
     0     0   46.68248    0    8   54.75708   46.68248  14.7%     -    3s
     0     0   46.68248    0    8   54.75708   46.68248  14.7%     -    4s
     0     0   47.02646    0    9   54.75708   47.02646  14.1%     -    4s
H    0     0                      54.6570700   47.02646  14.0%     -    5s
     0     0   47.38326    0    9   54.65707   47.38326  13.3%     -    5s
     0     0   47.56447    0    9   54.65707   47.56447  13.0%     -    5s
     0     0   47.56447    0    9   54.65707   47.56447  13.0%     -    5s
     0     0   47.56447    0    9   54.65707   47.56447  13.0%     -    5s
     0     0   47.56447    0    9   54.65707   47.56447  13.0%     -    5s
     0     0   47.56447    0    9   54.65707   47.56447  13.0%     -    5s
     0     0   47.60461    0    9   54.65707   47.60461  12.9%     -    6s
     0     0   47.85360    0   11   54.65707   47.85360  12.4%     -    6s
     0     0   47.85360    0   11   54.65707   47.85360  12.4%     -    6s
     0     0   47.98454    0    9   54.65707   47.98454  12.2%     -    7s
H    0     0                      52.5396298   47.98454  8.67%     -   18s
     0     2   47.98454    0    9   52.53963   47.98454  8.67%     -   18s
    13    16   50.21064    4    7   52.53963   48.66174  7.38%   440   20s
   124    16   51.43810    6    6   52.53963   49.55674  5.68%   196   30s

Cutting planes:
  Gomory: 4
  Implied bound: 1
  MIR: 813
  Relax-and-lift: 1

Explored 212 nodes (36390 simplex iterations) in 32.19 seconds
Thread count was 6 (of 8 available processors)

Solution count 4: 52.5396 54.6571 54.7571 60.1707 

Optimal solution found (tolerance 1.00e-02)
Best objective 5.253962983627e+01, best bound 5.253962983627e+01, gap 0.0000%

Gurobi 9.0.2 (win64) logging started Mon Nov  6 09:39:43 2023

Changed value of parameter LogFile to C:\Users\u0138303\OneDrive - KU Leuven\JointResearch\05. Models\06.Benchmarking\D.Representative_days_based_on_RES_and_Demand\RTS24_ByStages_nc80/openStarNet_RTS24_ByStages_nc80.log
   Prev:   Default: 
Changed value of parameter Method to 2
   Prev: -1  Min: -1  Max: 5  Default: -1
Changed value of parameter MIPFocus to 1
   Prev: 0  Min: 0  Max: 3  Default: 0
Changed value of parameter Presolve to 2
   Prev: -1  Min: -1  Max: 2  Default: -1
Changed value of parameter RINS to 100
   Prev: -1  Min: -1  Max: 2000000000  Default: -1
Parameter Crossover unchanged
   Value: -1  Min: -1  Max: 5  Default: -1
Changed value of parameter MIPGap to 0.01
   Prev: 0.0001  Min: 0.0  Max: inf  Default: 0.0001
Changed value of parameter Threads to 6
   Prev: 0  Min: 0  Max: 1024  Default: 0
Changed value of parameter TimeLimit to 604800.0
   Prev: inf  Min: 0.0  Max: inf  Default: inf
Changed value of parameter IterationLimit to 760000000.0
   Prev: inf  Min: 0.0  Max: inf  Default: inf
No parameters matching 'relax_integrality' found
Gurobi Optimizer version 9.0.2 build v9.0.2rc0 (win64)
Optimize a model with 37341 rows, 21002 columns and 85795 nonzeros
Model fingerprint: 0x822fc410
Coefficient statistics:
  Matrix range     [2e-03, 3e+03]
  Objective range  [1e+00, 1e+00]
  Bounds range     [4e-04, 3e+00]
  RHS range        [4e-04, 1e+01]
Presolve removed 30230 rows and 10434 columns
Presolve time: 0.04s
Presolved: 7111 rows, 10728 columns, 25670 nonzeros

Ordering time: 0.00s

Barrier statistics:
 AA' NZ     : 2.023e+04
 Factor NZ  : 9.460e+04 (roughly 8 MBytes of memory)
 Factor Ops : 1.427e+06 (less than 1 second per iteration)
 Threads    : 6

                  Objective                Residual
Iter       Primal          Dual         Primal    Dual     Compl     Time
   0   4.10254914e+05 -3.82771505e+07  4.51e+00 3.70e+02  3.24e+03     0s
   1   5.92522557e+04 -6.53562048e+06  4.07e-01 2.73e-12  3.67e+02     0s
   2   2.01018191e+04 -7.87698754e+05  1.02e-02 2.96e-12  3.51e+01     0s
   3   8.67264125e+03 -7.19457021e+04  1.55e-06 1.59e-12  3.45e+00     0s
   4   1.31054073e+03 -9.58655823e+03  1.19e-07 6.71e-13  4.66e-01     0s
   5   3.13723342e+02 -2.46464786e+03  1.15e-08 8.93e-13  1.19e-01     0s
   6   1.61983905e+02 -6.14884073e+02  1.16e-09 8.32e-13  3.32e-02     0s
   7   1.08828080e+02 -2.13979084e+02  4.48e-10 4.53e-13  1.38e-02     0s
   8   7.66927194e+01 -5.71960729e+01  1.49e-10 6.20e-13  5.73e-03     0s
   9   6.38389613e+01  1.03688164e+01  5.91e-11 6.93e-13  2.29e-03     0s
  10   5.73870037e+01  4.34080039e+01  2.24e-11 1.07e-12  5.98e-04     0s
  11   5.37074644e+01  5.04255295e+01  4.67e-12 6.67e-13  1.40e-04     0s
  12   5.29963149e+01  5.21373429e+01  1.79e-12 8.83e-13  3.68e-05     0s
  13   5.27739426e+01  5.24191915e+01  1.93e-12 6.82e-13  1.52e-05     0s
  14   5.26137517e+01  5.25195810e+01  3.85e-12 6.93e-13  4.03e-06     0s
  15   5.25524047e+01  5.25365900e+01  1.61e-11 9.14e-13  6.77e-07     0s
  16   5.25400080e+01  5.25391887e+01  7.39e-11 7.56e-13  3.51e-08     0s
  17   5.25396318e+01  5.25396271e+01  1.71e-09 9.86e-13  1.99e-10     0s
  18   5.25396298e+01  5.25396298e+01  5.73e-11 5.75e-13  1.99e-13     0s

Barrier solved model in 18 iterations and 0.15 seconds
Optimal objective 5.25396298e+01

Crossover log...

       0 DPushes remaining with DInf 0.0000000e+00                 0s

     388 PPushes remaining with PInf 0.0000000e+00                 0s
       0 PPushes remaining with PInf 0.0000000e+00                 0s

  Push phase complete: Pinf 0.0000000e+00, Dinf 1.2331766e-12      0s

Iteration    Objective       Primal Inf.    Dual Inf.      Time
     460    5.2539630e+01   0.000000e+00   0.000000e+00      0s

Solved in 460 iterations and 0.22 seconds
Optimal objective  5.253962984e+01

Gurobi 9.5.0 (linux64) logging started Wed Nov  8 12:47:57 2023

Set parameter LogFile to value "/lustre1/scratch/348/vsc34888/JointResearch/05.Models/06.Benchmarking/D.Representative_days_based_on_RES_and_Demand/RTS24_ByStages_nc80/openStarNet_RTS24_ByStages_nc80.log"
Set parameter Method to value 2
Set parameter MIPFocus to value 1
Set parameter Presolve to value 2
Set parameter RINS to value 100
Set parameter MIPGap to value 0.01
Set parameter Threads to value 36
Set parameter TimeLimit to value 604800
Set parameter IterationLimit to value 760000000
Gurobi Optimizer version 9.5.0 build v9.5.0rc5 (linux64)
Thread count: 36 physical cores, 36 logical processors, using up to 36 threads
Optimize a model with 37340 rows, 21041 columns and 100153 nonzeros
Model fingerprint: 0x6e6ffa14
Variable types: 21002 continuous, 39 integer (39 binary)
Coefficient statistics:
  Matrix range     [2e-03, 2e+03]
  Objective range  [1e+00, 1e+00]
  Bounds range     [4e-04, 3e+00]
  RHS range        [4e-04, 3e+00]
Presolve removed 19100 rows and 9296 columns
Presolve time: 0.18s
Presolved: 18240 rows, 11745 columns, 63466 nonzeros
Variable types: 11706 continuous, 39 integer (39 binary)
Found heuristic solution: objective 154.0855300
Root relaxation presolved: 18240 rows, 11745 columns, 63466 nonzeros

Root barrier log...

Ordering time: 0.01s

Barrier statistics:
 Dense cols : 39
 AA' NZ     : 1.350e+05
 Factor NZ  : 4.345e+05 (roughly 16 MB of memory)
 Factor Ops : 1.300e+07 (less than 1 second per iteration)
 Threads    : 36

                  Objective                Residual
Iter       Primal          Dual         Primal    Dual     Compl     Time
   0   6.34868116e+05 -6.92587671e+07  4.56e+00 2.66e+02  5.45e+03     0s
   1   7.84623633e+04 -1.88793168e+07  4.50e-01 3.28e-09  7.15e+02     0s
   2   2.18788559e+04 -2.18183450e+06  9.06e-03 1.61e-09  6.05e+01     0s
   3   1.07083884e+04 -2.02278468e+05  8.87e-13 1.27e-10  5.74e+00     0s
   4   2.64600131e+03 -2.06000238e+04  3.77e-13 1.02e-11  6.27e-01     0s
   5   6.51217563e+02 -6.12793530e+03  3.90e-13 2.83e-12  1.83e-01     0s
   6   3.85830849e+02 -1.89556681e+03  2.77e-13 9.09e-13  6.15e-02     0s
   7   2.81339995e+02 -6.59416067e+02  2.15e-13 9.09e-13  2.54e-02     1s
   8   1.67031683e+02 -2.23500711e+02  2.46e-13 9.09e-13  1.05e-02     1s
   9   1.36165927e+02 -4.43427471e+01  2.03e-13 9.09e-13  4.87e-03     1s
  10   1.06006828e+02  4.60452290e+01  2.83e-13 9.09e-13  1.62e-03     1s
  11   9.74561250e+01  7.89847959e+01  1.39e-12 9.09e-13  4.98e-04     1s
  12   9.52740671e+01  8.67678279e+01  2.42e-12 9.09e-13  2.29e-04     1s
  13   9.43897907e+01  8.82531918e+01  2.17e-12 9.09e-13  1.65e-04     1s
  14   9.36678957e+01  8.87781829e+01  4.60e-12 9.09e-13  1.32e-04     1s
  15   9.33817635e+01  8.96055791e+01  6.88e-12 9.09e-13  1.02e-04     1s
  16   9.30675164e+01  9.03874506e+01  6.26e-12 9.09e-13  7.23e-05     1s
  17   9.29618713e+01  9.06432423e+01  6.14e-12 9.09e-13  6.25e-05     1s
  18   9.25023342e+01  9.16172052e+01  9.71e-12 9.09e-13  2.39e-05     1s
  19   9.23139901e+01  9.18714154e+01  1.40e-11 9.09e-13  1.19e-05     1s
  20   9.21656735e+01  9.20176517e+01  2.16e-11 9.09e-13  3.99e-06     1s
  21   9.21220779e+01  9.20491237e+01  1.32e-10 9.09e-13  1.97e-06     1s
  22   9.21023219e+01  9.20657056e+01  6.96e-11 9.09e-13  9.87e-07     1s
  23   9.20738432e+01  9.20676199e+01  2.17e-10 4.55e-13  1.68e-07     1s
  24   9.20718712e+01  9.20711711e+01  1.11e-09 1.41e-12  1.89e-08     1s
  25   9.20713168e+01  9.20713135e+01  2.23e-10 9.41e-13  8.84e-11     1s
  26   9.20713157e+01  9.20713157e+01  3.38e-11 9.09e-13  5.25e-15     1s

Barrier solved model in 26 iterations and 0.71 seconds (0.63 work units)
Optimal objective 9.20713157e+01


Root relaxation: objective 9.207132e+01, 1365 iterations, 0.47 seconds (0.32 work units)

    Nodes    |    Current Node    |     Objective Bounds      |     Work
 Expl Unexpl |  Obj  Depth IntInf | Incumbent    BestBd   Gap | It/Node Time

     0     0   92.07132    0   11  154.08553   92.07132  40.2%     -    0s
H    0     0                     123.6785427   92.07132  25.6%     -    1s
     0     0   94.31770    0   10  123.67854   94.31770  23.7%     -    1s
H    0     0                     123.4953299   94.31770  23.6%     -    1s
     0     0   94.41225    0   10  123.49533   94.41225  23.5%     -    1s
     0     0   94.43936    0   10  123.49533   94.43936  23.5%     -    1s
     0     0   94.48771    0   11  123.49533   94.48771  23.5%     -    1s
     0     0   94.48771    0   11  123.49533   94.48771  23.5%     -    1s
H    0     0                     106.6225508   94.48771  11.4%     -    2s
     0     0   95.36591    0   12  106.62255   95.36591  10.6%     -    2s
     0     0   95.38153    0   11  106.62255   95.38153  10.5%     -    2s
     0     0   95.61869    0    9  106.62255   95.61869  10.3%     -    2s
     0     0   95.67827    0   10  106.62255   95.67827  10.3%     -    3s
     0     0   95.68180    0   10  106.62255   95.68180  10.3%     -    3s
     0     0   95.68440    0   11  106.62255   95.68440  10.3%     -    3s
     0     0   95.68493    0   11  106.62255   95.68493  10.3%     -    3s
     0     0   95.68494    0   11  106.62255   95.68494  10.3%     -    3s
     0     0   95.71646    0   11  106.62255   95.71646  10.2%     -    3s
     0     0   95.73926    0   11  106.62255   95.73926  10.2%     -    3s
     0     0   95.74410    0   11  106.62255   95.74410  10.2%     -    3s
     0     0   95.74413    0   11  106.62255   95.74413  10.2%     -    3s
     0     0   95.75490    0   11  106.62255   95.75490  10.2%     -    4s
H    0     0                     103.5460589   95.75490  7.52%     -    9s
     0     2   95.75490    0   11  103.54606   95.75490  7.52%     -    9s
     3     6     cutoff    2       103.54606   95.83475  7.45%   545   10s
   122    48  100.40171    9    7  103.54606  100.31414  3.12%   277   20s
   158    39  101.95628   10    8  103.54606  100.41250  3.03%   251   28s

Cutting planes:
  Gomory: 5
  Implied bound: 114
  MIR: 555
  Relax-and-lift: 4

Explored 290 nodes (57407 simplex iterations) in 28.59 seconds (34.44 work units)
Thread count was 36 (of 36 available processors)

Solution count 5: 103.546 106.623 123.495 ... 154.086

Optimal solution found (tolerance 1.00e-02)
Best objective 1.035460588912e+02, best bound 1.035460588912e+02, gap 0.0000%

Gurobi 9.5.0 (linux64) logging started Wed Nov  8 12:48:31 2023

Set parameter LogFile to value "/lustre1/scratch/348/vsc34888/JointResearch/05.Models/06.Benchmarking/D.Representative_days_based_on_RES_and_Demand/RTS24_ByStages_nc80/openStarNet_RTS24_ByStages_nc80.log"
Set parameter Method to value 2
Set parameter MIPFocus to value 1
Set parameter Presolve to value 2
Set parameter RINS to value 100
Set parameter MIPGap to value 0.01
Set parameter Threads to value 36
Set parameter TimeLimit to value 604800
Set parameter IterationLimit to value 760000000
No parameters matching 'relax_integrality' found
Gurobi Optimizer version 9.5.0 build v9.5.0rc5 (linux64)
Thread count: 36 physical cores, 36 logical processors, using up to 36 threads
Optimize a model with 37340 rows, 21002 columns and 87634 nonzeros
Model fingerprint: 0x4b687d88
Coefficient statistics:
  Matrix range     [2e-03, 2e+03]
  Objective range  [1e+00, 1e+00]
  Bounds range     [4e-04, 3e+00]
  RHS range        [4e-04, 3e+01]
Presolve removed 29900 rows and 10096 columns
Presolve time: 0.04s
Presolved: 7440 rows, 11066 columns, 27386 nonzeros

Ordering time: 0.00s

Barrier statistics:
 AA' NZ     : 1.923e+04
 Factor NZ  : 8.196e+04 (roughly 7 MB of memory)
 Factor Ops : 1.251e+06 (less than 1 second per iteration)
 Threads    : 36

                  Objective                Residual
Iter       Primal          Dual         Primal    Dual     Compl     Time
   0   7.33155823e+05 -2.04832004e+08  6.15e+00 3.38e+02  2.21e+04     0s
   1   9.95497771e+04 -3.28683540e+07  6.66e-01 1.63e-11  2.46e+03     0s
   2   4.36759420e+04 -3.28351772e+06  1.58e-01 1.36e-11  2.23e+02     0s
   3   2.26182232e+04 -6.03794692e+05  7.67e-03 1.67e-11  3.35e+01     0s
   4   1.24103637e+04 -8.01611858e+04  4.95e-04 9.94e-12  4.87e+00     0s
   5   4.11124048e+03 -1.70806022e+04  1.24e-04 1.32e-11  1.11e+00     0s
   6   8.45712608e+02 -4.18794885e+03  1.26e-05 6.42e-12  2.65e-01     0s
   7   3.83965459e+02 -9.58780576e+02  2.69e-06 1.82e-12  7.06e-02     0s
   8   2.83267095e+02 -4.71741214e+02  1.54e-06 1.82e-12  3.97e-02     0s
   9   1.73382023e+02 -1.22533218e+02  4.65e-07 7.28e-12  1.56e-02     0s
  10   1.21999943e+02  5.90937172e+01  8.50e-08 3.64e-12  3.31e-03     0s
  11   1.11164982e+02  8.84111857e+01  3.22e-08 3.64e-12  1.20e-03     0s
  12   1.07606401e+02  9.75391275e+01  1.68e-08 1.82e-12  5.30e-04     0s
  13   1.05328531e+02  1.01174831e+02  7.08e-09 1.82e-12  2.18e-04     0s
  14   1.04336340e+02  1.02645197e+02  3.04e-09 3.64e-12  8.90e-05     0s
  15   1.03698404e+02  1.03303103e+02  5.60e-10 7.28e-12  2.08e-05     0s
  16   1.03553190e+02  1.03533846e+02  2.47e-11 3.64e-12  1.02e-06     0s
  17   1.03546130e+02  1.03543778e+02  1.74e-10 3.64e-12  1.24e-07     0s
  18   1.03546061e+02  1.03546051e+02  3.68e-11 3.64e-12  5.22e-10     0s
  19   1.03546059e+02  1.03546059e+02  1.00e-11 3.64e-12  5.22e-13     0s
  20   1.03546059e+02  1.03546059e+02  9.23e-12 3.64e-12  5.22e-16     0s

Barrier solved model in 20 iterations and 0.16 seconds (0.11 work units)
Optimal objective 1.03546059e+02

Crossover log...

    1022 DPushes remaining with DInf 0.0000000e+00                 0s
       0 DPushes remaining with DInf 0.0000000e+00                 0s

     341 PPushes remaining with PInf 0.0000000e+00                 0s
       0 PPushes remaining with PInf 0.0000000e+00                 0s

  Push phase complete: Pinf 0.0000000e+00, Dinf 1.3486306e-12      0s

Iteration    Objective       Primal Inf.    Dual Inf.      Time
     365    1.0354606e+02   0.000000e+00   0.000000e+00      0s

Use crossover to convert LP symmetric solution to basic solution...
Crossover log...

       0 DPushes remaining with DInf 0.0000000e+00                 0s

     242 PPushes remaining with PInf 0.0000000e+00                 0s
       0 PPushes remaining with PInf 0.0000000e+00                 0s

  Push phase complete: Pinf 0.0000000e+00, Dinf 1.7939844e-12      0s

Iteration    Objective       Primal Inf.    Dual Inf.      Time
     629    1.0354606e+02   0.000000e+00   0.000000e+00      0s

Solved in 629 iterations and 0.24 seconds (0.15 work units)
Optimal objective  1.035460589e+02
